cvc5/1643.txt
; cardinality of var1146 is 1
; rep: (as @var1146_0 var1146)
; cardinality of void is 1
; rep: (as @void_0 void)
; cardinality of Iterator is 1
; rep: (as @Iterator_0 Iterator)
; cardinality of ClassObject is 1
; rep: (as @ClassObject_0 ClassObject)
(define-fun null-String () String "A")
(define-fun var1689 () String "")